[[58, 72, 39, 31, 9, 25, 55, 18, 50, 32, 44, 3, 40, 12, 17, 51, 33, 63, 16, 49, 24, 23, 56, 43], [41, 42, 64, 22, 73, 62, 28, 61, 74, 48, 21, 47, 36, 69, 71, 60, 70, 20, 37, 5, 15, 57], [13, 27, 29, 45, 30, 2, 6, 68, 75, 4, 76, 26, 67, 34, 46, 52, 8, 7, 35, 54, 19, 53, 14, 59, 66, 11, 65, 38, 10]]